c File: flat30_3_0.col
c
c SOURCE: Joseph Culberson (joe@cs.ualberta.ca)
c DESCRIPTION: Quasi-random coloring problem
c              generated with flatness = 0
c                             probability = 0.200
c                             known coloring = 3
c                             random seed = 235555
c              Creation Date:  Fri Nov 29 22:02:09 1996
c Maximum degree = 6 Minimum degree = 0
c
c cnf created by edge2cnf
p cnf 90 300
-1 -2 0
-1 -3 0
-2 -3 0
1 2 3 0
-4 -5 0
-4 -6 0
-5 -6 0
4 5 6 0
-7 -8 0
-7 -9 0
-8 -9 0
7 8 9 0
-10 -11 0
-10 -12 0
-11 -12 0
10 11 12 0
-13 -14 0
-13 -15 0
-14 -15 0
13 14 15 0
-16 -17 0
-16 -18 0
-17 -18 0
16 17 18 0
-19 -20 0
-19 -21 0
-20 -21 0
19 20 21 0
-22 -23 0
-22 -24 0
-23 -24 0
22 23 24 0
-25 -26 0
-25 -27 0
-26 -27 0
25 26 27 0
-28 -29 0
-28 -30 0
-29 -30 0
28 29 30 0
-31 -32 0
-31 -33 0
-32 -33 0
31 32 33 0
-34 -35 0
-34 -36 0
-35 -36 0
34 35 36 0
-37 -38 0
-37 -39 0
-38 -39 0
37 38 39 0
-40 -41 0
-40 -42 0
-41 -42 0
40 41 42 0
-43 -44 0
-43 -45 0
-44 -45 0
43 44 45 0
-46 -47 0
-46 -48 0
-47 -48 0
46 47 48 0
-49 -50 0
-49 -51 0
-50 -51 0
49 50 51 0
-52 -53 0
-52 -54 0
-53 -54 0
52 53 54 0
-55 -56 0
-55 -57 0
-56 -57 0
55 56 57 0
-58 -59 0
-58 -60 0
-59 -60 0
58 59 60 0
-61 -62 0
-61 -63 0
-62 -63 0
61 62 63 0
-64 -65 0
-64 -66 0
-65 -66 0
64 65 66 0
-67 -68 0
-67 -69 0
-68 -69 0
67 68 69 0
-70 -71 0
-70 -72 0
-71 -72 0
70 71 72 0
-73 -74 0
-73 -75 0
-74 -75 0
73 74 75 0
-76 -77 0
-76 -78 0
-77 -78 0
76 77 78 0
-79 -80 0
-79 -81 0
-80 -81 0
79 80 81 0
-82 -83 0
-82 -84 0
-83 -84 0
82 83 84 0
-85 -86 0
-85 -87 0
-86 -87 0
85 86 87 0
-88 -89 0
-88 -90 0
-89 -90 0
88 89 90 0
-46 -1 0
-47 -2 0
-48 -3 0
-52 -1 0
-53 -2 0
-54 -3 0
-58 -1 0
-59 -2 0
-60 -3 0
-64 -1 0
-65 -2 0
-66 -3 0
-79 -1 0
-80 -2 0
-81 -3 0
-85 -1 0
-86 -2 0
-87 -3 0
-52 -4 0
-53 -5 0
-54 -6 0
-70 -4 0
-71 -5 0
-72 -6 0
-73 -4 0
-74 -5 0
-75 -6 0
-88 -4 0
-89 -5 0
-90 -6 0
-31 -7 0
-32 -8 0
-33 -9 0
-46 -7 0
-47 -8 0
-48 -9 0
-52 -7 0
-53 -8 0
-54 -9 0
-70 -7 0
-71 -8 0
-72 -9 0
-82 -7 0
-83 -8 0
-84 -9 0
-85 -7 0
-86 -8 0
-87 -9 0
-31 -10 0
-32 -11 0
-33 -12 0
-40 -10 0
-41 -11 0
-42 -12 0
-43 -10 0
-44 -11 0
-45 -12 0
-67 -10 0
-68 -11 0
-69 -12 0
-76 -10 0
-77 -11 0
-78 -12 0
-55 -13 0
-56 -14 0
-57 -15 0
-67 -13 0
-68 -14 0
-69 -15 0
-73 -13 0
-74 -14 0
-75 -15 0
-43 -16 0
-44 -17 0
-45 -18 0
-46 -16 0
-47 -17 0
-48 -18 0
-31 -22 0
-32 -23 0
-33 -24 0
-34 -22 0
-35 -23 0
-36 -24 0
-40 -22 0
-41 -23 0
-42 -24 0
-61 -22 0
-62 -23 0
-63 -24 0
-64 -22 0
-65 -23 0
-66 -24 0
-88 -22 0
-89 -23 0
-90 -24 0
-37 -25 0
-38 -26 0
-39 -27 0
-43 -25 0
-44 -26 0
-45 -27 0
-64 -25 0
-65 -26 0
-66 -27 0
-82 -25 0
-83 -26 0
-84 -27 0
-37 -28 0
-38 -29 0
-39 -30 0
-40 -28 0
-41 -29 0
-42 -30 0
-61 -28 0
-62 -29 0
-63 -30 0
-73 -28 0
-74 -29 0
-75 -30 0
-67 -31 0
-68 -32 0
-69 -33 0
-82 -31 0
-83 -32 0
-84 -33 0
-88 -31 0
-89 -32 0
-90 -33 0
-64 -34 0
-65 -35 0
-66 -36 0
-73 -34 0
-74 -35 0
-75 -36 0
-82 -37 0
-83 -38 0
-84 -39 0
-73 -40 0
-74 -41 0
-75 -42 0
-82 -46 0
-83 -47 0
-84 -48 0
-64 -49 0
-65 -50 0
-66 -51 0
-79 -49 0
-80 -50 0
-81 -51 0
-88 -49 0
-89 -50 0
-90 -51 0
-61 -52 0
-62 -53 0
-63 -54 0
-67 -52 0
-68 -53 0
-69 -54 0
-85 -52 0
-86 -53 0
-87 -54 0
-64 -55 0
-65 -56 0
-66 -57 0
-70 -55 0
-71 -56 0
-72 -57 0
-85 -55 0
-86 -56 0
-87 -57 0
-70 -58 0
-71 -59 0
-72 -60 0
-76 -58 0
-77 -59 0
-78 -60 0
-79 -58 0
-80 -59 0
-81 -60 0
